[[53, 14, 59, 11, 66, 65, 38, 58, 10, 31, 72, 39, 9, 25, 55, 18, 50, 32, 44, 3, 40, 12, 17], [51, 6, 16, 63, 49, 24, 23, 56, 43, 41, 42, 64, 22, 73, 33, 62, 2, 74, 28, 61, 21, 47, 69, 36, 71], [60, 70, 20, 37, 5, 15, 57, 13, 27, 45, 29, 48, 30, 4, 68, 75, 76, 26, 67, 34, 46, 52, 8, 7, 35, 54, 19]]